43
75
60	1
59	2
58	1
57	5
56	3
55	3
54	4
53	2
52	2
51	1
50	2
49	3
48	2
46	1
45	2
44	2
43	4
42	2
41	2
40	4
39	3
38	3
37	1
36	3
35	2
34	1
33	2
32	2
31	3
29	2
28	4
27	1
26	3
24	2
23	1
22	1
21	3
20	4
19	1
18	2
17	3
16	1
15	4
